unknown
(:reason-unknown "(incomplete quantifiers)")
(((ControlFlow 0 0) 16749))
(((ControlFlow 0 16749) 14003))
(((ControlFlow 0 14003) 14075))
(((ControlFlow 0 14075) 14069))
(((ControlFlow 0 14069) 14155))
(((ControlFlow 0 14155) 14149))
(((ControlFlow 0 14149) 14682))
(((ControlFlow 0 14682) 14626))
(((ControlFlow 0 14626) 14736))
(((ControlFlow 0 14736) 14730))
(((ControlFlow 0 14730) 14740))
(((ControlFlow 0 14740) 15084))
(((ControlFlow 0 15084) 15026))
(((ControlFlow 0 15026) 15237))
(((ControlFlow 0 15237) 15229))
(((ControlFlow 0 15229) 15231))
(((ControlFlow 0 15231) 16509))
(((ControlFlow 0 16509) 16030))
(((ControlFlow 0 16030) (- 18692)))
unknown
(:reason-unknown "(incomplete quantifiers)")
(((ControlFlow 0 0) 16749))
(((ControlFlow 0 16749) 14003))
(((ControlFlow 0 14003) 14075))
(((ControlFlow 0 14075) 14069))
(((ControlFlow 0 14069) 14155))
(((ControlFlow 0 14155) 14149))
(((ControlFlow 0 14149) 14682))
(((ControlFlow 0 14682) 14626))
(((ControlFlow 0 14626) 14736))
(((ControlFlow 0 14736) 14730))
(((ControlFlow 0 14730) 14740))
(((ControlFlow 0 14740) 14838))
(((ControlFlow 0 14838) (- 17803)))
unknown
(:reason-unknown "(incomplete quantifiers)")
(((ControlFlow 0 0) 16749))
(((ControlFlow 0 16749) 14003))
(((ControlFlow 0 14003) 14075))
(((ControlFlow 0 14075) 14069))
(((ControlFlow 0 14069) 14155))
(((ControlFlow 0 14155) 14149))
(((ControlFlow 0 14149) 14682))
(((ControlFlow 0 14682) 14626))
(((ControlFlow 0 14626) 14736))
(((ControlFlow 0 14736) 14730))
(((ControlFlow 0 14730) 14740))
(((ControlFlow 0 14740) 15084))
(((ControlFlow 0 15084) 15026))
(((ControlFlow 0 15026) 15237))
(((ControlFlow 0 15237) 15179))
(((ControlFlow 0 15179) 15291))
(((ControlFlow 0 15291) 15285))
(((ControlFlow 0 15285) 15299))
(((ControlFlow 0 15299) 15460))
(((ControlFlow 0 15460) 15400))
(((ControlFlow 0 15400) 15514))
(((ControlFlow 0 15514) 15508))
(((ControlFlow 0 15508) 15681))
(((ControlFlow 0 15681) 15621))
(((ControlFlow 0 15621) 15858))
(((ControlFlow 0 15858) 15798))
(((ControlFlow 0 15798) 15876))
(((ControlFlow 0 15876) 16006))
(((ControlFlow 0 16006) (- 18759)))
unsat
